language ESSENCE' 1.0
$ minion Nodes: 6
$ minion TotalTime: 0.003746
$ Savile Row TotalTime: 1.486
letting x_SetOccurrence be [false, false, true, false, false, false, false, false, false, false, false, false, false, false, true;int(0..14)]
letting x_SetExplicitVarSizeWithDefault be [2, 14;int(1..2)]
